Version identifier: 20.1.0.0 | 2020-11-10 | 9bedb6d68
CPXPARAM_LPMethod                                2
CPXPARAM_QPMethod                                2
CPXPARAM_Threads                                 4
CPXPARAM_MIP_Strategy_StartAlgorithm             2
CPXPARAM_Emphasis_MIP                            1
CPXPARAM_MIP_Limits_Solutions                    1
CPXPARAM_TimeLimit                               43195
Retaining values of one MIP start for possible repair.
Tried aggregator 1 time.
MIP Presolve eliminated 1878 rows and 0 columns.
Reduced MIP has 8308 rows, 496 columns, and 27651 nonzeros.
Reduced MIP has 496 binaries, 0 generals, 0 SOSs, and 0 indicators.
Presolve time = 0,04 sec. (13,16 ticks)
Probing time = 0,05 sec. (0,56 ticks)
Tried aggregator 1 time.
Detecting symmetries...
Reduced MIP has 8308 rows, 496 columns, and 27651 nonzeros.
Reduced MIP has 496 binaries, 0 generals, 0 SOSs, and 0 indicators.
Presolve time = 0,05 sec. (12,64 ticks)
Probing time = 0,00 sec. (1,26 ticks)
MIP emphasis: integer feasibility.
MIP search method: dynamic search.
Parallel mode: deterministic, using up to 4 threads.
Root relaxation solution time = 1,74 sec. (447,93 ticks)

        Nodes                                         Cuts/
   Node  Left     Objective  IInf  Best Integer    Best Bound    ItCnt     Gap

      0     0       72,0000    28                     72,0000     6161         
      0     0        cutoff                                       6447         
Elapsed time = 3,87 sec. (935,22 ticks, tree = 0,01 MB, solutions = 0)

Gomory fractional cuts applied:  1

Root node processing (before b&c):
  Real time             =    3,87 sec. (935,31 ticks)
Parallel b&c, 4 threads:
  Real time             =    0,00 sec. (0,00 ticks)
  Sync time (average)   =    0,00 sec.
  Wait time (average)   =    0,00 sec.
                          ------------
Total (root+branch&cut) =    3,87 sec. (935,31 ticks)
